c "769598.clq"
p edge 138 536
e 1 5
e 1 6
e 1 7
e 1 9
e 1 11
e 1 13
e 1 31
e 1 37
e 1 38
e 1 39
e 1 42
e 1 43
e 1 47
e 1 48
e 1 54
e 1 59
e 1 60
e 1 62
e 1 64
e 1 79
e 1 84
e 1 108
e 1 116
e 1 131
e 1 133
e 1 135
e 2 5
e 2 6
e 2 8
e 2 13
e 2 14
e 2 30
e 2 32
e 2 39
e 2 44
e 2 51
e 2 53
e 2 63
e 2 68
e 2 71
e 2 95
e 2 99
e 2 117
e 2 119
e 3 5
e 3 19
e 3 36
e 3 57
e 3 89
e 3 106
e 3 113
e 4 5
e 4 6
e 4 7
e 4 8
e 4 9
e 4 10
e 4 12
e 4 14
e 4 16
e 4 18
e 4 22
e 4 24
e 4 32
e 4 35
e 4 40
e 4 44
e 4 55
e 4 58
e 4 63
e 4 74
e 4 87
e 4 93
e 4 120
e 4 126
e 4 138
e 5 6
e 5 7
e 5 8
e 5 9
e 5 10
e 5 11
e 5 12
e 5 17
e 5 18
e 5 24
e 5 25
e 5 28
e 5 29
e 5 31
e 5 33
e 5 34
e 5 36
e 5 38
e 5 45
e 5 52
e 5 53
e 5 54
e 5 58
e 5 61
e 5 63
e 5 67
e 5 69
e 5 75
e 5 81
e 5 88
e 5 90
e 5 94
e 5 95
e 5 102
e 5 104
e 5 107
e 5 113
e 5 115
e 5 122
e 5 136
e 6 7
e 6 10
e 6 11
e 6 12
e 6 15
e 6 16
e 6 17
e 6 20
e 6 23
e 6 32
e 6 35
e 6 46
e 6 47
e 6 49
e 6 51
e 6 54
e 6 55
e 6 87
e 6 111
e 6 117
e 6 119
e 6 120
e 6 125
e 6 137
e 7 8
e 7 12
e 7 13
e 7 14
e 7 16
e 7 18
e 7 19
e 7 20
e 7 21
e 7 27
e 7 28
e 7 36
e 7 41
e 7 59
e 7 61
e 7 66
e 7 70
e 7 80
e 7 89
e 7 99
e 7 116
e 8 9
e 8 10
e 8 13
e 8 15
e 8 16
e 8 23
e 8 24
e 8 25
e 8 26
e 8 30
e 8 35
e 8 40
e 8 42
e 8 44
e 8 50
e 8 56
e 8 60
e 8 64
e 8 66
e 8 67
e 8 76
e 8 78
e 8 84
e 8 86
e 8 93
e 8 102
e 8 133
e 9 18
e 9 21
e 9 35
e 9 37
e 9 43
e 9 47
e 9 66
e 9 71
e 9 90
e 9 94
e 9 97
e 9 112
e 9 129
e 9 130
e 9 131
e 10 11
e 10 14
e 10 17
e 10 19
e 10 20
e 10 21
e 10 22
e 10 24
e 10 26
e 10 28
e 10 31
e 10 43
e 10 46
e 10 57
e 10 60
e 10 62
e 10 64
e 10 65
e 10 68
e 10 85
e 10 89
e 10 91
e 10 93
e 10 95
e 10 106
e 10 110
e 10 117
e 11 20
e 11 23
e 11 27
e 11 28
e 11 58
e 11 59
e 11 60
e 11 78
e 11 99
e 11 103
e 11 110
e 11 124
e 11 125
e 11 136
e 12 15
e 12 23
e 12 44
e 12 100
e 12 107
e 13 15
e 13 30
e 13 33
e 13 48
e 13 53
e 13 133
e 14 25
e 14 51
e 14 68
e 14 69
e 15 26
e 15 29
e 15 41
e 15 62
e 15 63
e 15 72
e 15 79
e 15 114
e 16 17
e 16 22
e 16 34
e 16 42
e 16 45
e 16 46
e 16 59
e 16 82
e 16 111
e 16 114
e 16 118
e 16 122
e 16 124
e 17 19
e 17 29
e 17 38
e 17 45
e 17 94
e 17 117
e 18 27
e 18 29
e 18 31
e 18 33
e 18 36
e 18 37
e 18 48
e 18 52
e 18 75
e 18 76
e 18 83
e 18 92
e 18 101
e 18 114
e 18 118
e 19 26
e 19 32
e 19 33
e 19 34
e 19 37
e 19 38
e 19 64
e 19 65
e 19 66
e 19 72
e 19 96
e 19 97
e 19 100
e 19 112
e 19 121
e 19 123
e 20 21
e 20 109
e 20 129
e 21 22
e 21 88
e 21 130
e 22 34
e 22 39
e 22 85
e 22 98
e 22 103
e 22 110
e 22 115
e 22 132
e 22 133
e 23 25
e 23 46
e 23 48
e 23 56
e 23 75
e 23 77
e 23 79
e 23 80
e 23 82
e 23 92
e 23 99
e 23 104
e 24 27
e 24 70
e 25 30
e 25 95
e 26 47
e 26 50
e 26 57
e 26 74
e 26 105
e 26 124
e 26 127
e 27 39
e 27 40
e 27 127
e 28 49
e 28 71
e 29 53
e 29 55
e 29 69
e 29 106
e 29 123
e 29 135
e 30 41
e 30 56
e 30 72
e 30 76
e 30 98
e 30 124
e 31 41
e 31 89
e 31 105
e 31 108
e 31 113
e 31 137
e 32 40
e 32 49
e 32 86
e 33 42
e 33 104
e 33 108
e 34 43
e 34 51
e 34 55
e 34 81
e 34 84
e 34 105
e 34 121
e 35 65
e 35 105
e 35 121
e 36 50
e 36 78
e 36 87
e 36 91
e 36 98
e 36 113
e 36 127
e 37 49
e 37 137
e 38 52
e 38 80
e 39 73
e 39 84
e 39 92
e 39 118
e 39 130
e 40 45
e 40 50
e 40 86
e 40 110
e 41 115
e 42 130
e 43 69
e 43 111
e 44 68
e 44 88
e 44 96
e 44 122
e 44 131
e 44 134
e 45 87
e 46 85
e 46 126
e 47 54
e 47 77
e 48 57
e 48 83
e 48 132
e 48 137
e 49 61
e 49 97
e 50 52
e 50 135
e 51 56
e 51 65
e 51 73
e 51 78
e 51 81
e 51 107
e 51 126
e 52 101
e 53 70
e 53 106
e 54 77
e 54 104
e 55 67
e 55 81
e 55 101
e 56 90
e 57 58
e 57 62
e 57 67
e 57 80
e 58 85
e 58 120
e 58 132
e 59 61
e 59 88
e 60 73
e 60 74
e 60 93
e 60 96
e 60 103
e 60 125
e 61 82
e 62 83
e 63 74
e 63 82
e 63 96
e 63 109
e 63 134
e 64 70
e 64 71
e 64 72
e 64 127
e 65 76
e 65 116
e 65 128
e 66 91
e 66 102
e 66 114
e 66 119
e 67 101
e 68 73
e 68 111
e 68 116
e 68 122
e 69 75
e 71 83
e 71 92
e 71 115
e 72 98
e 73 77
e 74 86
e 74 108
e 75 79
e 75 91
e 75 97
e 75 128
e 76 129
e 76 138
e 77 126
e 79 90
e 79 123
e 80 138
e 81 128
e 83 107
e 85 102
e 85 134
e 87 100
e 88 94
e 88 112
e 88 134
e 88 135
e 90 118
e 91 125
e 93 123
e 95 100
e 95 109
e 96 121
e 96 128
e 98 103
e 98 109
e 101 112
e 101 119
e 103 120
e 105 132
e 116 131
e 118 129
e 120 136
e 121 138
e 134 136
